50
99.0
0 49 19.51 0.51
1 48 19.37 0.53
2 47 19.34 0.52
3 46 19.31 0.52
4 45 19.69 0.52
5 44 19.49 0.5
6 43 19.52 0.52
7 42 19.82 0.52
8 41 18.91 0.54
9 40 19.5 0.51
10 39 19.25 0.53
11 38 19.25 0.53
12 37 18.73 0.5
13 36 19.25 0.52
14 35 19.11 0.53
15 34 19.84 0.52
16 33 20.35 0.51
17 32 19.84 0.5
18 31 19.64 0.5
19 30 19.6 0.49
20 29 19.27 0.52
21 28 18.84 0.53
22 27 18.59 0.53
23 26 19.42 0.51
24 25 19.44 0.53
25 24 18.98 0.52
26 23 19.64 0.48
27 22 19.88 0.54
28 21 20.18 0.53
29 20 19.17 0.51
30 19 19.06 0.57
31 18 19.69 0.55
32 17 18.78 0.51
33 16 19.63 0.5
34 15 19.95 0.5
35 14 20.02 0.49
36 13 18.1 0.55
37 12 19.07 0.58
38 11 19.6 0.49
39 10 19.51 0.52
40 9 20.66 0.56
41 8 19.91 0.5
42 7 20.08 0.46
43 6 19.77 0.47
44 5 20.35 0.52
45 4 21.82 0.48
46 3 20.12 0.48
47 2 18.26 0.48
48 1 19.95 0.57
